p cnf 289 1
289 0
w 1 0.961198
w 2 1 0.00156933
w 2 -1 0.664599
w 3 2 0.715174
w 3 -2 0.931291
w 4 3 0.925526
w 4 -3 0.00302271
w 5 4 0.124224
w 5 -4 0.45256
w 6 5 0.65542
w 6 -5 0.360082
w 7 6 1
w 7 -6 0
w 8 7 0.338996
w 8 -7 0.820744
w 9 8 0.313126
w 9 -8 0.107439
w 10 9 0
w 10 -9 1
w 11 10 1
w 11 -10 0
w 12 11 0.734879
w 12 -11 0.77118
w 13 12 0.593305
w 13 -12 0.77275
w 14 13 0
w 14 -13 1
w 15 14 0
w 15 -14 1
w 16 15 0.41345
w 16 -15 0.350224
w 17 16 0.537674
w 17 -16 0.802785
w 18 1 1
w 18 -1 0
w 19 18 2 1
w 19 18 -2 0
w 19 -18 2 0
w 19 -18 -2 1
w 20 19 3 0.705094
w 20 19 -3 0.373054
w 20 -19 3 0.982989
w 20 -19 -3 0.865675
w 21 20 4 0
w 21 20 -4 0
w 21 -20 4 1
w 21 -20 -4 0
w 22 21 5 0
w 22 21 -5 1
w 22 -21 5 1
w 22 -21 -5 1
w 23 22 6 0.50306
w 23 22 -6 0.455298
w 23 -22 6 0.795094
w 23 -22 -6 0.91651
w 24 23 7 0.324822
w 24 23 -7 0.454184
w 24 -23 7 0.608307
w 24 -23 -7 0.800347
w 25 24 8 0.771174
w 25 24 -8 0.521279
w 25 -24 8 0.702084
w 25 -24 -8 0.518967
w 26 25 9 0.577635
w 26 25 -9 0.224061
w 26 -25 9 0.954262
w 26 -25 -9 0.560624
w 27 26 10 1
w 27 26 -10 0
w 27 -26 10 0
w 27 -26 -10 0
w 28 27 11 0.803329
w 28 27 -11 0.738079
w 28 -27 11 0.386827
w 28 -27 -11 0.818465
w 29 28 12 0.208483
w 29 28 -12 0.321525
w 29 -28 12 0.301473
w 29 -28 -12 0.00357719
w 30 29 13 0
w 30 29 -13 1
w 30 -29 13 0
w 30 -29 -13 0
w 31 30 14 0
w 31 30 -14 1
w 31 -30 14 0
w 31 -30 -14 1
w 32 31 15 0
w 32 31 -15 1
w 32 -31 15 1
w 32 -31 -15 0
w 33 32 16 0
w 33 32 -16 1
w 33 -32 16 1
w 33 -32 -16 0
w 34 33 17 1
w 34 33 -17 0
w 34 -33 17 0
w 34 -33 -17 1
w 35 18 0.920665
w 35 -18 0.394417
w 36 35 19 0.222139
w 36 35 -19 0.397994
w 36 -35 19 0.0615367
w 36 -35 -19 0.329135
w 37 36 20 0.753757
w 37 36 -20 0.0444378
w 37 -36 20 0.85514
w 37 -36 -20 0.0932539
w 38 37 21 0.505165
w 38 37 -21 0.134836
w 38 -37 21 0.536359
w 38 -37 -21 0.736399
w 39 38 22 0.765864
w 39 38 -22 0.921894
w 39 -38 22 0.933892
w 39 -38 -22 0.0851039
w 40 39 23 0
w 40 39 -23 1
w 40 -39 23 1
w 40 -39 -23 0
w 41 40 24 0.623311
w 41 40 -24 0.913778
w 41 -40 24 0.150772
w 41 -40 -24 0.543977
w 42 41 25 1
w 42 41 -25 1
w 42 -41 25 0
w 42 -41 -25 0
w 43 42 26 0
w 43 42 -26 1
w 43 -42 26 1
w 43 -42 -26 0
w 44 43 27 0.670603
w 44 43 -27 0.792889
w 44 -43 27 0.0176558
w 44 -43 -27 0.206962
w 45 44 28 0.771708
w 45 44 -28 0.972826
w 45 -44 28 0.451182
w 45 -44 -28 0.7056
w 46 45 29 0
w 46 45 -29 0
w 46 -45 29 1
w 46 -45 -29 0
w 47 46 30 0.835725
w 47 46 -30 0.275959
w 47 -46 30 0.822784
w 47 -46 -30 0.379702
w 48 47 31 0.797057
w 48 47 -31 0.145817
w 48 -47 31 0.290344
w 48 -47 -31 0.832867
w 49 48 32 0
w 49 48 -32 1
w 49 -48 32 0
w 49 -48 -32 0
w 50 49 33 0.0513575
w 50 49 -33 0.80354
w 50 -49 33 0.522909
w 50 -49 -33 0.258319
w 51 50 34 1
w 51 50 -34 1
w 51 -50 34 0
w 51 -50 -34 1
w 52 35 1
w 52 -35 0
w 53 52 36 1
w 53 52 -36 0
w 53 -52 36 1
w 53 -52 -36 1
w 54 53 37 1
w 54 53 -37 0
w 54 -53 37 0
w 54 -53 -37 0
w 55 54 38 0
w 55 54 -38 1
w 55 -54 38 1
w 55 -54 -38 1
w 56 55 39 0.880768
w 56 55 -39 0.564697
w 56 -55 39 0.694438
w 56 -55 -39 0.684307
w 57 56 40 0
w 57 56 -40 1
w 57 -56 40 1
w 57 -56 -40 1
w 58 57 41 0.38244
w 58 57 -41 0.472976
w 58 -57 41 0.248745
w 58 -57 -41 0.0169929
w 59 58 42 0.90876
w 59 58 -42 0.0137269
w 59 -58 42 0.769569
w 59 -58 -42 0.4045
w 60 59 43 0
w 60 59 -43 0
w 60 -59 43 1
w 60 -59 -43 0
w 61 60 44 0
w 61 60 -44 0
w 61 -60 44 1
w 61 -60 -44 1
w 62 61 45 0.206606
w 62 61 -45 0.0413413
w 62 -61 45 0.241949
w 62 -61 -45 0.901043
w 63 62 46 0.329555
w 63 62 -46 0.8538
w 63 -62 46 0.742783
w 63 -62 -46 0.711777
w 64 63 47 0
w 64 63 -47 0
w 64 -63 47 0
w 64 -63 -47 1
w 65 64 48 1
w 65 64 -48 0
w 65 -64 48 0
w 65 -64 -48 1
w 66 65 49 1
w 66 65 -49 1
w 66 -65 49 0
w 66 -65 -49 1
w 67 66 50 0.687072
w 67 66 -50 0.845079
w 67 -66 50 0.440775
w 67 -66 -50 0.250598
w 68 67 51 1
w 68 67 -51 0
w 68 -67 51 0
w 68 -67 -51 0
w 69 52 0.689529
w 69 -52 0.212047
w 70 69 53 0.401307
w 70 69 -53 0.24975
w 70 -69 53 0.0593521
w 70 -69 -53 0.495524
w 71 70 54 0.852023
w 71 70 -54 0.606733
w 71 -70 54 0.056374
w 71 -70 -54 0.553454
w 72 71 55 0.121888
w 72 71 -55 0.659385
w 72 -71 55 0.143027
w 72 -71 -55 0.764056
w 73 72 56 0
w 73 72 -56 1
w 73 -72 56 1
w 73 -72 -56 1
w 74 73 57 0
w 74 73 -57 1
w 74 -73 57 0
w 74 -73 -57 0
w 75 74 58 0.505799
w 75 74 -58 0.798378
w 75 -74 58 0.368016
w 75 -74 -58 0.195329
w 76 75 59 0
w 76 75 -59 0
w 76 -75 59 1
w 76 -75 -59 0
w 77 76 60 0
w 77 76 -60 1
w 77 -76 60 1
w 77 -76 -60 0
w 78 77 61 0
w 78 77 -61 1
w 78 -77 61 0
w 78 -77 -61 1
w 79 78 62 0.0529125
w 79 78 -62 0.271238
w 79 -78 62 0.549945
w 79 -78 -62 0.785242
w 80 79 63 0.577743
w 80 79 -63 0.768169
w 80 -79 63 0.362346
w 80 -79 -63 0.723567
w 81 80 64 1
w 81 80 -64 1
w 81 -80 64 1
w 81 -80 -64 0
w 82 81 65 0
w 82 81 -65 0
w 82 -81 65 0
w 82 -81 -65 1
w 83 82 66 1
w 83 82 -66 0
w 83 -82 66 1
w 83 -82 -66 0
w 84 83 67 0
w 84 83 -67 1
w 84 -83 67 0
w 84 -83 -67 0
w 85 84 68 0.536649
w 85 84 -68 0.355626
w 85 -84 68 0.0877717
w 85 -84 -68 0.0865947
w 86 69 0
w 86 -69 1
w 87 86 70 0.909037
w 87 86 -70 0.264084
w 87 -86 70 0.387905
w 87 -86 -70 0.117337
w 88 87 71 1
w 88 87 -71 0
w 88 -87 71 1
w 88 -87 -71 1
w 89 88 72 1
w 89 88 -72 1
w 89 -88 72 0
w 89 -88 -72 0
w 90 89 73 0
w 90 89 -73 1
w 90 -89 73 1
w 90 -89 -73 0
w 91 90 74 0
w 91 90 -74 0
w 91 -90 74 1
w 91 -90 -74 0
w 92 91 75 0.136415
w 92 91 -75 0.288113
w 92 -91 75 0.949738
w 92 -91 -75 0.0381531
w 93 92 76 0.858775
w 93 92 -76 0.302237
w 93 -92 76 0.340356
w 93 -92 -76 0.976112
w 94 93 77 0.957626
w 94 93 -77 0.100127
w 94 -93 77 0.0715791
w 94 -93 -77 0.999592
w 95 94 78 0
w 95 94 -78 1
w 95 -94 78 1
w 95 -94 -78 0
w 96 95 79 1
w 96 95 -79 0
w 96 -95 79 0
w 96 -95 -79 1
w 97 96 80 0.460947
w 97 96 -80 0.131936
w 97 -96 80 0.19623
w 97 -96 -80 0.509591
w 98 97 81 1
w 98 97 -81 1
w 98 -97 81 0
w 98 -97 -81 0
w 99 98 82 0.57402
w 99 98 -82 0.813613
w 99 -98 82 0.986396
w 99 -98 -82 0.914375
w 100 99 83 0.510436
w 100 99 -83 0.872002
w 100 -99 83 0.889852
w 100 -99 -83 0.582015
w 101 100 84 0.131098
w 101 100 -84 0.41031
w 101 -100 84 0.93448
w 101 -100 -84 0.790741
w 102 101 85 0
w 102 101 -85 0
w 102 -101 85 1
w 102 -101 -85 0
w 103 86 0.482732
w 103 -86 0.863936
w 104 103 87 0.678962
w 104 103 -87 0.373526
w 104 -103 87 0.0991248
w 104 -103 -87 0.684062
w 105 104 88 0
w 105 104 -88 1
w 105 -104 88 0
w 105 -104 -88 0
w 106 105 89 0
w 106 105 -89 1
w 106 -105 89 1
w 106 -105 -89 1
w 107 106 90 1
w 107 106 -90 0
w 107 -106 90 1
w 107 -106 -90 0
w 108 107 91 0.053929
w 108 107 -91 0.34014
w 108 -107 91 0.0613152
w 108 -107 -91 0.220595
w 109 108 92 1
w 109 108 -92 1
w 109 -108 92 0
w 109 -108 -92 0
w 110 109 93 0.24158
w 110 109 -93 0.701766
w 110 -109 93 0.719123
w 110 -109 -93 0.925642
w 111 110 94 0.439816
w 111 110 -94 0.564542
w 111 -110 94 0.424989
w 111 -110 -94 0.734529
w 112 111 95 1
w 112 111 -95 1
w 112 -111 95 0
w 112 -111 -95 0
w 113 112 96 1
w 113 112 -96 1
w 113 -112 96 1
w 113 -112 -96 0
w 114 113 97 0
w 114 113 -97 1
w 114 -113 97 0
w 114 -113 -97 0
w 115 114 98 0.711014
w 115 114 -98 0.390174
w 115 -114 98 0.783424
w 115 -114 -98 0.273632
w 116 115 99 0.403422
w 116 115 -99 0.515212
w 116 -115 99 0.420179
w 116 -115 -99 0.122545
w 117 116 100 1
w 117 116 -100 1
w 117 -116 100 1
w 117 -116 -100 0
w 118 117 101 0
w 118 117 -101 1
w 118 -117 101 0
w 118 -117 -101 0
w 119 118 102 0.265216
w 119 118 -102 0.673127
w 119 -118 102 0.0952804
w 119 -118 -102 0.242607
w 120 103 1
w 120 -103 0
w 121 120 104 1
w 121 120 -104 1
w 121 -120 104 1
w 121 -120 -104 0
w 122 121 105 0.423205
w 122 121 -105 0.748716
w 122 -121 105 0.00204212
w 122 -121 -105 0.141618
w 123 122 106 1
w 123 122 -106 0
w 123 -122 106 0
w 123 -122 -106 1
w 124 123 107 0.837045
w 124 123 -107 0.963502
w 124 -123 107 0.269738
w 124 -123 -107 0.133935
w 125 124 108 0.95128
w 125 124 -108 0.374444
w 125 -124 108 0.267697
w 125 -124 -108 0.948422
w 126 125 109 0.940824
w 126 125 -109 0.0437021
w 126 -125 109 0.882266
w 126 -125 -109 0.268522
w 127 126 110 1
w 127 126 -110 0
w 127 -126 110 1
w 127 -126 -110 1
w 128 127 111 0
w 128 127 -111 0
w 128 -127 111 1
w 128 -127 -111 0
w 129 128 112 0
w 129 128 -112 0
w 129 -128 112 1
w 129 -128 -112 1
w 130 129 113 0.282594
w 130 129 -113 0.616681
w 130 -129 113 0.122089
w 130 -129 -113 0.416529
w 131 130 114 0.0733685
w 131 130 -114 0.790973
w 131 -130 114 0.870331
w 131 -130 -114 0.0217902
w 132 131 115 0
w 132 131 -115 0
w 132 -131 115 0
w 132 -131 -115 1
w 133 132 116 1
w 133 132 -116 1
w 133 -132 116 0
w 133 -132 -116 0
w 134 133 117 0.118604
w 134 133 -117 0.770448
w 134 -133 117 0.673137
w 134 -133 -117 0.296422
w 135 134 118 0
w 135 134 -118 0
w 135 -134 118 1
w 135 -134 -118 1
w 136 135 119 0.359158
w 136 135 -119 0.572147
w 136 -135 119 0.261354
w 136 -135 -119 0.481247
w 137 120 0.863989
w 137 -120 0.554615
w 138 137 121 0.734319
w 138 137 -121 0.576405
w 138 -137 121 0.210282
w 138 -137 -121 0.545474
w 139 138 122 0.52318
w 139 138 -122 0.625151
w 139 -138 122 0.13736
w 139 -138 -122 0.825506
w 140 139 123 1
w 140 139 -123 1
w 140 -139 123 0
w 140 -139 -123 1
w 141 140 124 0.337093
w 141 140 -124 0.495215
w 141 -140 124 0.278469
w 141 -140 -124 0.181096
w 142 141 125 0
w 142 141 -125 0
w 142 -141 125 1
w 142 -141 -125 1
w 143 142 126 0
w 143 142 -126 1
w 143 -142 126 1
w 143 -142 -126 1
w 144 143 127 0
w 144 143 -127 1
w 144 -143 127 1
w 144 -143 -127 1
w 145 144 128 0.3986
w 145 144 -128 0.544584
w 145 -144 128 0.16167
w 145 -144 -128 0.53596
w 146 145 129 0
w 146 145 -129 0
w 146 -145 129 0
w 146 -145 -129 1
w 147 146 130 0.441121
w 147 146 -130 0.172267
w 147 -146 130 0.310155
w 147 -146 -130 0.71959
w 148 147 131 0
w 148 147 -131 0
w 148 -147 131 1
w 148 -147 -131 0
w 149 148 132 0.866808
w 149 148 -132 0.320984
w 149 -148 132 0.274984
w 149 -148 -132 0.898281
w 150 149 133 0.455281
w 150 149 -133 0.709403
w 150 -149 133 0.568754
w 150 -149 -133 0.211983
w 151 150 134 0.105274
w 151 150 -134 0.610583
w 151 -150 134 0.275392
w 151 -150 -134 0.266944
w 152 151 135 1
w 152 151 -135 1
w 152 -151 135 0
w 152 -151 -135 1
w 153 152 136 0.606985
w 153 152 -136 0.445603
w 153 -152 136 0.887786
w 153 -152 -136 0.326575
w 154 137 0.68465
w 154 -137 0.831442
w 155 154 138 0.612897
w 155 154 -138 0.480745
w 155 -154 138 0.489786
w 155 -154 -138 0.933881
w 156 155 139 0.388067
w 156 155 -139 0.51159
w 156 -155 139 0.21101
w 156 -155 -139 0.0974698
w 157 156 140 1
w 157 156 -140 1
w 157 -156 140 0
w 157 -156 -140 0
w 158 157 141 1
w 158 157 -141 1
w 158 -157 141 1
w 158 -157 -141 0
w 159 158 142 0.915015
w 159 158 -142 0.164059
w 159 -158 142 0.520439
w 159 -158 -142 0.522
w 160 159 143 0.408225
w 160 159 -143 0.848575
w 160 -159 143 0.408628
w 160 -159 -143 0.0928748
w 161 160 144 0.031605
w 161 160 -144 0.705772
w 161 -160 144 0.160762
w 161 -160 -144 0.521391
w 162 161 145 0.916491
w 162 161 -145 0.909457
w 162 -161 145 0.151242
w 162 -161 -145 0.127501
w 163 162 146 0
w 163 162 -146 0
w 163 -162 146 0
w 163 -162 -146 1
w 164 163 147 0.938873
w 164 163 -147 0.869765
w 164 -163 147 0.764187
w 164 -163 -147 0.688024
w 165 164 148 0.706996
w 165 164 -148 0.603039
w 165 -164 148 0.924548
w 165 -164 -148 0.227435
w 166 165 149 1
w 166 165 -149 1
w 166 -165 149 0
w 166 -165 -149 0
w 167 166 150 0.653632
w 167 166 -150 0.974443
w 167 -166 150 0.434306
w 167 -166 -150 0.814395
w 168 167 151 0
w 168 167 -151 0
w 168 -167 151 0
w 168 -167 -151 1
w 169 168 152 0.412218
w 169 168 -152 0.456787
w 169 -168 152 0.40888
w 169 -168 -152 0.247422
w 170 169 153 0.99295
w 170 169 -153 0.186295
w 170 -169 153 0.743756
w 170 -169 -153 0.757137
w 171 154 0.504245
w 171 -154 0.464133
w 172 171 155 1
w 172 171 -155 1
w 172 -171 155 0
w 172 -171 -155 0
w 173 172 156 0
w 173 172 -156 0
w 173 -172 156 1
w 173 -172 -156 0
w 174 173 157 0.490069
w 174 173 -157 0.0440384
w 174 -173 157 0.376119
w 174 -173 -157 0.564027
w 175 174 158 0.78141
w 175 174 -158 0.789228
w 175 -174 158 0.633311
w 175 -174 -158 0.193628
w 176 175 159 0
w 176 175 -159 1
w 176 -175 159 0
w 176 -175 -159 0
w 177 176 160 0.863763
w 177 176 -160 0.792279
w 177 -176 160 0.501663
w 177 -176 -160 0.368008
w 178 177 161 0
w 178 177 -161 1
w 178 -177 161 1
w 178 -177 -161 0
w 179 178 162 0.275208
w 179 178 -162 0.157429
w 179 -178 162 0.665648
w 179 -178 -162 0.33097
w 180 179 163 0
w 180 179 -163 1
w 180 -179 163 0
w 180 -179 -163 1
w 181 180 164 0
w 181 180 -164 0
w 181 -180 164 0
w 181 -180 -164 1
w 182 181 165 0.42031
w 182 181 -165 0.881538
w 182 -181 165 0.33814
w 182 -181 -165 0.540316
w 183 182 166 0.965485
w 183 182 -166 0.404078
w 183 -182 166 0.708958
w 183 -182 -166 0.467148
w 184 183 167 0.96537
w 184 183 -167 0.446168
w 184 -183 167 0.568888
w 184 -183 -167 0.91335
w 185 184 168 1
w 185 184 -168 1
w 185 -184 168 0
w 185 -184 -168 1
w 186 185 169 0.572088
w 186 185 -169 0.540275
w 186 -185 169 0.340566
w 186 -185 -169 0.00320002
w 187 186 170 0
w 187 186 -170 1
w 187 -186 170 0
w 187 -186 -170 0
w 188 171 0
w 188 -171 1
w 189 188 172 0.401021
w 189 188 -172 0.860552
w 189 -188 172 0.846801
w 189 -188 -172 0.366506
w 190 189 173 1
w 190 189 -173 1
w 190 -189 173 0
w 190 -189 -173 1
w 191 190 174 0.434479
w 191 190 -174 0.307407
w 191 -190 174 0.934297
w 191 -190 -174 0.623036
w 192 191 175 0
w 192 191 -175 0
w 192 -191 175 0
w 192 -191 -175 1
w 193 192 176 0
w 193 192 -176 1
w 193 -192 176 1
w 193 -192 -176 0
w 194 193 177 1
w 194 193 -177 0
w 194 -193 177 0
w 194 -193 -177 0
w 195 194 178 0.289476
w 195 194 -178 0.102452
w 195 -194 178 0.927438
w 195 -194 -178 0.554106
w 196 195 179 0.761091
w 196 195 -179 0.590822
w 196 -195 179 0.17934
w 196 -195 -179 0.0409121
w 197 196 180 0
w 197 196 -180 1
w 197 -196 180 0
w 197 -196 -180 0
w 198 197 181 0.0593609
w 198 197 -181 0.379418
w 198 -197 181 0.905254
w 198 -197 -181 0.528274
w 199 198 182 0.972965
w 199 198 -182 0.459514
w 199 -198 182 0.0713089
w 199 -198 -182 0.249912
w 200 199 183 0.179997
w 200 199 -183 0.575442
w 200 -199 183 0.716455
w 200 -199 -183 0.608921
w 201 200 184 0.277387
w 201 200 -184 0.898396
w 201 -200 184 0.933546
w 201 -200 -184 0.204825
w 202 201 185 0
w 202 201 -185 1
w 202 -201 185 0
w 202 -201 -185 1
w 203 202 186 1
w 203 202 -186 1
w 203 -202 186 1
w 203 -202 -186 0
w 204 203 187 1
w 204 203 -187 1
w 204 -203 187 1
w 204 -203 -187 0
w 205 188 0.074108
w 205 -188 0.417621
w 206 205 189 0.32402
w 206 205 -189 0.974165
w 206 -205 189 0.115042
w 206 -205 -189 0.899463
w 207 206 190 0.723962
w 207 206 -190 0.730556
w 207 -206 190 0.968007
w 207 -206 -190 0.622359
w 208 207 191 0.172832
w 208 207 -191 0.0748609
w 208 -207 191 0.255859
w 208 -207 -191 0.138747
w 209 208 192 1
w 209 208 -192 1
w 209 -208 192 1
w 209 -208 -192 0
w 210 209 193 0.728407
w 210 209 -193 0.0336416
w 210 -209 193 0.69661
w 210 -209 -193 0.15824
w 211 210 194 0
w 211 210 -194 0
w 211 -210 194 0
w 211 -210 -194 1
w 212 211 195 0.83361
w 212 211 -195 0.195882
w 212 -211 195 0.508134
w 212 -211 -195 0.948652
w 213 212 196 0
w 213 212 -196 0
w 213 -212 196 0
w 213 -212 -196 1
w 214 213 197 1
w 214 213 -197 1
w 214 -213 197 0
w 214 -213 -197 0
w 215 214 198 1
w 215 214 -198 1
w 215 -214 198 0
w 215 -214 -198 0
w 216 215 199 0
w 216 215 -199 1
w 216 -215 199 0
w 216 -215 -199 0
w 217 216 200 0.253159
w 217 216 -200 0.618998
w 217 -216 200 0.848949
w 217 -216 -200 0.151725
w 218 217 201 1
w 218 217 -201 0
w 218 -217 201 0
w 218 -217 -201 0
w 219 218 202 0.782085
w 219 218 -202 0.0898044
w 219 -218 202 0.606601
w 219 -218 -202 0.607986
w 220 219 203 0
w 220 219 -203 1
w 220 -219 203 0
w 220 -219 -203 1
w 221 220 204 0.0744977
w 221 220 -204 0.759426
w 221 -220 204 0.616665
w 221 -220 -204 0.698412
w 222 205 0.801352
w 222 -205 0.823047
w 223 222 206 1
w 223 222 -206 1
w 223 -222 206 0
w 223 -222 -206 0
w 224 223 207 0
w 224 223 -207 0
w 224 -223 207 1
w 224 -223 -207 1
w 225 224 208 1
w 225 224 -208 1
w 225 -224 208 0
w 225 -224 -208 1
w 226 225 209 0
w 226 225 -209 1
w 226 -225 209 1
w 226 -225 -209 1
w 227 226 210 0.123468
w 227 226 -210 0.772799
w 227 -226 210 0.0522829
w 227 -226 -210 0.882894
w 228 227 211 0
w 228 227 -211 1
w 228 -227 211 0
w 228 -227 -211 1
w 229 228 212 0.210498
w 229 228 -212 0.218033
w 229 -228 212 0.580355
w 229 -228 -212 0.483338
w 230 229 213 1
w 230 229 -213 1
w 230 -229 213 0
w 230 -229 -213 0
w 231 230 214 0
w 231 230 -214 0
w 231 -230 214 0
w 231 -230 -214 1
w 232 231 215 0.612175
w 232 231 -215 0.730304
w 232 -231 215 0.0277985
w 232 -231 -215 0.464235
w 233 232 216 0.00558373
w 233 232 -216 0.587703
w 233 -232 216 0.432053
w 233 -232 -216 0.0578666
w 234 233 217 1
w 234 233 -217 0
w 234 -233 217 0
w 234 -233 -217 0
w 235 234 218 0.222831
w 235 234 -218 0.600335
w 235 -234 218 0.207239
w 235 -234 -218 0.706169
w 236 235 219 1
w 236 235 -219 0
w 236 -235 219 0
w 236 -235 -219 1
w 237 236 220 0.993497
w 237 236 -220 0.555846
w 237 -236 220 0.593563
w 237 -236 -220 0.892838
w 238 237 221 0
w 238 237 -221 1
w 238 -237 221 1
w 238 -237 -221 1
w 239 222 0
w 239 -222 1
w 240 239 223 0.293266
w 240 239 -223 0.728273
w 240 -239 223 0.535966
w 240 -239 -223 0.101827
w 241 240 224 0.548299
w 241 240 -224 0.484129
w 241 -240 224 0.314028
w 241 -240 -224 0.77113
w 242 241 225 1
w 242 241 -225 1
w 242 -241 225 0
w 242 -241 -225 0
w 243 242 226 1
w 243 242 -226 0
w 243 -242 226 0
w 243 -242 -226 1
w 244 243 227 0.616807
w 244 243 -227 0.369589
w 244 -243 227 0.862751
w 244 -243 -227 0.822545
w 245 244 228 0.0925666
w 245 244 -228 0.492518
w 245 -244 228 0.275127
w 245 -244 -228 0.327966
w 246 245 229 0.989576
w 246 245 -229 0.621232
w 246 -245 229 0.478468
w 246 -245 -229 0.525541
w 247 246 230 0.165611
w 247 246 -230 0.0738406
w 247 -246 230 0.207189
w 247 -246 -230 0.479639
w 248 247 231 0.291653
w 248 247 -231 0.000905747
w 248 -247 231 0.322269
w 248 -247 -231 0.457776
w 249 248 232 0
w 249 248 -232 0
w 249 -248 232 1
w 249 -248 -232 0
w 250 249 233 0
w 250 249 -233 0
w 250 -249 233 1
w 250 -249 -233 1
w 251 250 234 0.780102
w 251 250 -234 0.791996
w 251 -250 234 0.368754
w 251 -250 -234 0.0552287
w 252 251 235 1
w 252 251 -235 0
w 252 -251 235 1
w 252 -251 -235 0
w 253 252 236 0.464253
w 253 252 -236 0.763028
w 253 -252 236 0.644186
w 253 -252 -236 0.671442
w 254 253 237 1
w 254 253 -237 0
w 254 -253 237 1
w 254 -253 -237 1
w 255 254 238 0
w 255 254 -238 0
w 255 -254 238 0
w 255 -254 -238 1
w 256 239 0.779684
w 256 -239 0.327253
w 257 256 240 0.567055
w 257 256 -240 0.0266827
w 257 -256 240 0.591876
w 257 -256 -240 0.347157
w 258 257 241 0.96063
w 258 257 -241 0.402386
w 258 -257 241 0.938641
w 258 -257 -241 0.0795797
w 259 258 242 0
w 259 258 -242 1
w 259 -258 242 0
w 259 -258 -242 0
w 260 259 243 0
w 260 259 -243 1
w 260 -259 243 1
w 260 -259 -243 1
w 261 260 244 0.926265
w 261 260 -244 0.962304
w 261 -260 244 0.199497
w 261 -260 -244 0.240895
w 262 261 245 1
w 262 261 -245 1
w 262 -261 245 1
w 262 -261 -245 0
w 263 262 246 0.908138
w 263 262 -246 0.085406
w 263 -262 246 0.156835
w 263 -262 -246 0.255295
w 264 263 247 0.117465
w 264 263 -247 0.657681
w 264 -263 247 0.842725
w 264 -263 -247 0.197045
w 265 264 248 1
w 265 264 -248 0
w 265 -264 248 1
w 265 -264 -248 1
w 266 265 249 1
w 266 265 -249 1
w 266 -265 249 0
w 266 -265 -249 0
w 267 266 250 1
w 267 266 -250 0
w 267 -266 250 1
w 267 -266 -250 1
w 268 267 251 0
w 268 267 -251 1
w 268 -267 251 0
w 268 -267 -251 1
w 269 268 252 0.498958
w 269 268 -252 0.270918
w 269 -268 252 0.0395185
w 269 -268 -252 0.655793
w 270 269 253 0.943603
w 270 269 -253 0.773258
w 270 -269 253 0.183894
w 270 -269 -253 0.786328
w 271 270 254 0.288764
w 271 270 -254 0.308888
w 271 -270 254 0.844344
w 271 -270 -254 0.41117
w 272 271 255 0.158411
w 272 271 -255 0.195299
w 272 -271 255 0.457714
w 272 -271 -255 0.15517
w 273 256 1
w 273 -256 0
w 274 273 257 0
w 274 273 -257 1
w 274 -273 257 0
w 274 -273 -257 1
w 275 274 258 1
w 275 274 -258 0
w 275 -274 258 1
w 275 -274 -258 1
w 276 275 259 0.131133
w 276 275 -259 0.201049
w 276 -275 259 0.360429
w 276 -275 -259 0.0747362
w 277 276 260 0.544323
w 277 276 -260 0.861064
w 277 -276 260 0.944609
w 277 -276 -260 0.833087
w 278 277 261 1
w 278 277 -261 1
w 278 -277 261 1
w 278 -277 -261 0
w 279 278 262 0
w 279 278 -262 1
w 279 -278 262 0
w 279 -278 -262 0
w 280 279 263 0
w 280 279 -263 1
w 280 -279 263 0
w 280 -279 -263 1
w 281 280 264 0.560343
w 281 280 -264 0.756075
w 281 -280 264 0.264353
w 281 -280 -264 0.651957
w 282 281 265 0
w 282 281 -265 1
w 282 -281 265 1
w 282 -281 -265 1
w 283 282 266 0.476686
w 283 282 -266 0.00332156
w 283 -282 266 0.718891
w 283 -282 -266 0.421295
w 284 283 267 0.888843
w 284 283 -267 0.210248
w 284 -283 267 0.0806663
w 284 -283 -267 0.0343318
w 285 284 268 0
w 285 284 -268 1
w 285 -284 268 1
w 285 -284 -268 1
w 286 285 269 0.440874
w 286 285 -269 0.687564
w 286 -285 269 0.459794
w 286 -285 -269 0.863714
w 287 286 270 0
w 287 286 -270 0
w 287 -286 270 1
w 287 -286 -270 0
w 288 287 271 1
w 288 287 -271 0
w 288 -287 271 1
w 288 -287 -271 0
w 289 288 272 0.716931
w 289 288 -272 0.433812
w 289 -288 272 0.986092
w 289 -288 -272 0.435822